32	0

0	7	2	3	4	5	6	7	9
8	3	12	13	15
7	4	12	13	15	18
1	3	8	10	11
8	3	12	13	15
1	3	8	10	11
1	3	8	10	11
2	4	12	13	15	18
3	4	12	13	15	18
5	4	12	13	15	18
1	4	12	13	15	18
1	2	14	16
6	5	17	20	21	22	26
3	6	17	19	20	21	22	26
6	5	17	20	21	22	26
7	1	23
10	2	27	30
10	1	24
3	1	23
1	1	23
8	1	24
1	1	23
5	1	24
1	1	25
1	2	27	30
10	2	27	30
3	3	28	29	31
7	1	32
3	1	32
6	1	32
1	1	32
0	0
